\ Model Routes
\ LP format - for model browsing. Use MPS format to capture full model detail.
Maximize
  1533.228206194839 R{0,0} + 2591.679024458567 R{0,1}
   + 2591.679024458567 R{0,2} - 249.2301939667805 R{0,3}
   + 234.7650315204939 R{0,4} + 397.2891588355392 R{0,5}
   + 2512.874474838933 R{0,6} + 1968.734047770539 R{0,7}
   + 2496.114587007034 R{0,8} + 2073.693355825503 R{0,9}
   + 1938.657128262553 R{0,10} + 2219.565059259677 R{0,11}
   + 1467.681995527797 R{0,12} + 1865.960218498627 R{0,13}
   + 1403.189720765788 R{0,14} + 2148.241477612742 R{0,15}
   + 2376.325842699664 R{0,16} + 1415.6019140076 R{0,17}
   + 1852.649670550964 R{0,18} + 721.9988764316895 R{0,19}
   + 2139.239566492545 R{0,20} + 1400.325256341144 R{0,21}
   + 2449.555795961659 R{0,22} + 2267.358516296837 R{0,23}
   - 256.140831891889 R{1,0} + 22.55008804458731 R{1,1}
   + 1141.439937477706 R{1,2} + 1141.439937477706 R{1,3}
   + 1489.958306711971 R{1,4} + 1288.844763482355 R{1,5}
   + 1592.81965978477 R{1,6} + 1054.698843334252 R{1,7}
   + 498.8412544936147 R{1,8} + 849.4844049727735 R{1,9}
   + 498.8412544936147 R{1,10} + 433.2340442130546 R{1,11}
   + 1091.594310091273 R{1,12} + 58.51508787730063 R{1,13}
   + 190.9483864733541 R{1,14} + 4.935507030290921 R{1,15}
   + 80.99360559657811 R{1,16} + 212.6827548670159 R{1,17}
   + 551.5819983368569 R{1,18} + 862.0699957917122 R{1,19}
   - 278.4443928850388 R{2,0} - 59.13410337035452 R{2,1}
   + 602.7748664658451 R{2,2} + 1100.505917706273 R{2,3}
   + 342.2555761003598 R{2,4} + 343.8687336675509 R{2,5}
   - 148.3822267132251 R{2,6} + 481.8339840066735 R{2,7}
   + 495.6910937490641 R{2,8} + 430.2823159335674 R{2,9}
   + 292.7903918308775 R{2,10} + 639.1648718239871 R{2,11}
   + 144.4600408296817 R{2,12} + 481.8339840066735 R{2,13}
   + 2.703881842827968 R{2,14} - 260.2482995389823 R{3,0}
   + 630.4721973521264 R{3,1} + 1700.862677924125 R{3,2}
   + 2061.865395194246 R{3,3} + 748.747642264585 R{3,4}
   + 1875.111523557622 R{3,5} + 688.2079018504797 R{3,6}
   + 1964.017364004662 R{3,7} + 1787.022124348357 R{3,8}
   + 305.1391210064105 R{3,9} + 1368.852558809694 R{3,10}
   + 1425.461364741235 R{3,11} + 443.9266593979985 R{3,12}
   + 830.7101992345616 R{3,13} + 1370.835425713147 R{3,14}
   + 1628.416858938428 R{3,15} + 860.991268019136 R{3,16}
   + 175.4661095856436 R{3,17} + 1165.954821518842 R{3,18}
   - 122.8456463574175 R{3,19} - 242.5208875955131 R{4,0}
   + 1055.572474837385 R{4,1} + 1576.196574514046 R{4,2}
   + 1518.476392418149 R{4,3} + 1020.698352019703 R{4,4}
   + 689.0553678731573 R{4,5} + 940.9858490724757 R{4,6}
   + 1614.759663885629 R{4,7} + 1427.515206076762 R{4,8}
   + 1368.458921873517 R{4,9} + 1339.407367225795 R{4,10}
   + 1051.881338787204 R{4,11} + 1094.135564208969 R{4,12}
   + 815.843236537075 R{4,13} + 1120.310534486319 R{4,14}
   + 1368.458921873517 R{4,15} + 914.66711671503 R{4,16}
   + 618.6774285101644 R{4,17} + 679.6085738508666 R{4,18}
   + 894.6987856444464 R{4,19} + 703.1352268205702 R{4,20}
   + 899.3006466161903 R{4,21} - 231.9775664337766 R{5,0}
   + 40.49903117334031 R{5,1} + 364.0546919427258 R{5,2}
   + 53.89426485381171 R{5,3} + 186.7443658768464 R{5,4}
   + 266.1926127088012 R{5,5} - 231.1436095783099 R{6,0}
   + 352.5135528432641 R{6,1} + 1376.623169502638 R{6,2}
   + 1941.768530245978 R{6,3} + 1852.024381360134 R{6,4}
   + 569.8446319514291 R{6,5} + 1595.012366130544 R{6,6}
   + 816.2356246202824 R{6,7} + 1716.055820032881 R{6,8}
   + 791.5276594774365 R{6,9} + 730.703135103498 R{6,10}
   + 1742.27199656175 R{6,11} + 1769.330951600786 R{6,12}
   + 1595.012366130544 R{6,13} + 357.5960159695912 R{6,14}
   + 637.3251692368946 R{6,15} + 345.4322717942797 R{6,16}
   + 940.5590709132189 R{6,17}
Subject To
 R00: R{0,0} <= 1
 R01: R{0,1} <= 1
 R02: R{0,2} <= 1
 R03: R{0,3} <= 1
 R04: R{0,4} <= 1
 R05: R{0,5} <= 1
 R06: R{0,6} <= 1
 R07: R{0,7} <= 1
 R08: R{0,8} <= 1
 R09: R{0,9} <= 1
 R010: R{0,10} <= 1
 R011: R{0,11} <= 1
 R012: R{0,12} <= 1
 R013: R{0,13} <= 1
 R014: R{0,14} <= 1
 R015: R{0,15} <= 1
 R016: R{0,16} <= 1
 R017: R{0,17} <= 1
 R018: R{0,18} <= 1
 R019: R{0,19} <= 1
 R020: R{0,20} <= 1
 R021: R{0,21} <= 1
 R022: R{0,22} <= 1
 R023: R{0,23} <= 1
 R024: R{1,0} <= 1
 R025: R{1,1} <= 1
 R026: R{1,2} <= 1
 R027: R{1,3} <= 1
 R028: R{1,4} <= 1
 R029: R{1,5} <= 1
 R030: R{1,6} <= 1
 R031: R{1,7} <= 1
 R032: R{1,8} <= 1
 R033: R{1,9} <= 1
 R034: R{1,10} <= 1
 R035: R{1,11} <= 1
 R036: R{1,12} <= 1
 R037: R{1,13} <= 1
 R038: R{1,14} <= 1
 R039: R{1,15} <= 1
 R040: R{1,16} <= 1
 R041: R{1,17} <= 1
 R042: R{1,18} <= 1
 R043: R{1,19} <= 1
 R044: R{2,0} <= 1
 R045: R{2,1} <= 1
 R046: R{2,2} <= 1
 R047: R{2,3} <= 1
 R048: R{2,4} <= 1
 R049: R{2,5} <= 1
 R050: R{2,6} <= 1
 R051: R{2,7} <= 1
 R052: R{2,8} <= 1
 R053: R{2,9} <= 1
 R054: R{2,10} <= 1
 R055: R{2,11} <= 1
 R056: R{2,12} <= 1
 R057: R{2,13} <= 1
 R058: R{2,14} <= 1
 R059: R{3,0} <= 1
 R060: R{3,1} <= 1
 R061: R{3,2} <= 1
 R062: R{3,3} <= 1
 R063: R{3,4} <= 1
 R064: R{3,5} <= 1
 R065: R{3,6} <= 1
 R066: R{3,7} <= 1
 R067: R{3,8} <= 1
 R068: R{3,9} <= 1
 R069: R{3,10} <= 1
 R070: R{3,11} <= 1
 R071: R{3,12} <= 1
 R072: R{3,13} <= 1
 R073: R{3,14} <= 1
 R074: R{3,15} <= 1
 R075: R{3,16} <= 1
 R076: R{3,17} <= 1
 R077: R{3,18} <= 1
 R078: R{3,19} <= 1
 R079: R{4,0} <= 1
 R080: R{4,1} <= 1
 R081: R{4,2} <= 1
 R082: R{4,3} <= 1
 R083: R{4,4} <= 1
 R084: R{4,5} <= 1
 R085: R{4,6} <= 1
 R086: R{4,7} <= 1
 R087: R{4,8} <= 1
 R088: R{4,9} <= 1
 R089: R{4,10} <= 1
 R090: R{4,11} <= 1
 R091: R{4,12} <= 1
 R092: R{4,13} <= 1
 R093: R{4,14} <= 1
 R094: R{4,15} <= 1
 R095: R{4,16} <= 1
 R096: R{4,17} <= 1
 R097: R{4,18} <= 1
 R098: R{4,19} <= 1
 R099: R{4,20} <= 1
 R0100: R{4,21} <= 1
 R0101: R{5,0} <= 1
 R0102: R{5,1} <= 1
 R0103: R{5,2} <= 1
 R0104: R{5,3} <= 1
 R0105: R{5,4} <= 1
 R0106: R{5,5} <= 1
 R0107: R{6,0} <= 1
 R0108: R{6,1} <= 1
 R0109: R{6,2} <= 1
 R0110: R{6,3} <= 1
 R0111: R{6,4} <= 1
 R0112: R{6,5} <= 1
 R0113: R{6,6} <= 1
 R0114: R{6,7} <= 1
 R0115: R{6,8} <= 1
 R0116: R{6,9} <= 1
 R0117: R{6,10} <= 1
 R0118: R{6,11} <= 1
 R0119: R{6,12} <= 1
 R0120: R{6,13} <= 1
 R0121: R{6,14} <= 1
 R0122: R{6,15} <= 1
 R0123: R{6,16} <= 1
 R0124: R{6,17} <= 1
 R1_0: R{0,0} + R{0,1} + R{0,2} + R{0,3} + R{0,4} + R{0,5} + R{0,6}
   + R{0,7} + R{0,8} + R{0,9} + R{0,10} + R{0,11} + R{0,12} + R{0,13}
   + R{0,14} + R{0,15} + R{0,16} + R{0,17} + R{0,18} + R{0,19} + R{0,20}
   + R{0,21} + R{0,22} + R{0,23} <= 1
 R1_1: R{1,0} + R{1,1} + R{1,2} + R{1,3} + R{1,4} + R{1,5} + R{1,6}
   + R{1,7} + R{1,8} + R{1,9} + R{1,10} + R{1,11} + R{1,12} + R{1,13}
   + R{1,14} + R{1,15} + R{1,16} + R{1,17} + R{1,18} + R{1,19} <= 1
 R1_2: R{2,0} + R{2,1} + R{2,2} + R{2,3} + R{2,4} + R{2,5} + R{2,6}
   + R{2,7} + R{2,8} + R{2,9} + R{2,10} + R{2,11} + R{2,12} + R{2,13}
   + R{2,14} <= 1
 R1_3: R{3,0} + R{3,1} + R{3,2} + R{3,3} + R{3,4} + R{3,5} + R{3,6}
   + R{3,7} + R{3,8} + R{3,9} + R{3,10} + R{3,11} + R{3,12} + R{3,13}
   + R{3,14} + R{3,15} + R{3,16} + R{3,17} + R{3,18} + R{3,19} <= 1
 R1_4: R{4,0} + R{4,1} + R{4,2} + R{4,3} + R{4,4} + R{4,5} + R{4,6}
   + R{4,7} + R{4,8} + R{4,9} + R{4,10} + R{4,11} + R{4,12} + R{4,13}
   + R{4,14} + R{4,15} + R{4,16} + R{4,17} + R{4,18} + R{4,19} + R{4,20}
   + R{4,21} <= 1
 R1_5: R{5,0} + R{5,1} + R{5,2} + R{5,3} + R{5,4} + R{5,5} <= 1
 R1_6: R{6,0} + R{6,1} + R{6,2} + R{6,3} + R{6,4} + R{6,5} + R{6,6}
   + R{6,7} + R{6,8} + R{6,9} + R{6,10} + R{6,11} + R{6,12} + R{6,13}
   + R{6,14} + R{6,15} + R{6,16} + R{6,17} <= 1
 R2_0: 7 R{0,0} + 7 R{0,1} + 7 R{0,2} + 7 R{0,6} + 7 R{0,7} + 7 R{0,8}
   + 7 R{0,9} + 7 R{0,10} + 7 R{0,11} + 7 R{0,12} + 7 R{0,13} + 7 R{0,14}
   + 7 R{0,15} + 7 R{0,17} + 7 R{0,18} + 7 R{0,19} + 7 R{0,20} + 7 R{0,21}
   + 7 R{0,22} + 6 R{0,23} <= 7
 R2_1: <= 10
 R2_2: <= 0
 R2_3: 4 R{5,1} + 4 R{5,2} + 4 R{5,3} + 4 R{5,4} <= 4
 R2_4: <= 0
 R2_5: 5 R{5,1} + 5 R{5,2} + 5 R{5,3} + 5 R{5,4} <= 5
 R2_6: 10 R{1,7} + 10 R{1,8} + 10 R{1,10} + 10 R{5,4} + 10 R{5,5}
   + 10 R{6,1} + 10 R{6,2} + 10 R{6,3} + 10 R{6,4} + 10 R{6,6} + 10 R{6,8}
   + 10 R{6,9} + 10 R{6,11} + 10 R{6,12} + 10 R{6,13} <= 10
 R2_7: <= 0
 R2_8: <= 0
 R2_9: 12 R{4,1} + 12 R{4,2} + 12 R{4,3} + 12 R{4,4} + 12 R{4,5}
   + 12 R{4,6} + 12 R{4,7} + 12 R{4,8} + 12 R{4,9} + 12 R{4,11}
   + 12 R{4,12} + 12 R{4,13} + 12 R{4,14} + 12 R{4,15} + 12 R{4,16}
   + 12 R{4,17} + 12 R{4,18} + 12 R{4,19} + 12 R{4,20} + 12 R{4,21} <= 12
 R2_10: 8 R{3,5} + 8 R{6,1} + 8 R{6,2} + 8 R{6,3} + 8 R{6,4} + 8 R{6,5}
   + 8 R{6,6} + 8 R{6,13} + 8 R{6,15} <= 8
 R2_11: 15 R{0,15} <= 15
 R2_12: <= 0
 R2_13: <= 0
 R2_14: <= 0
 R2_15: 11 R{0,0} + 11 R{0,1} + 11 R{0,2} + 11 R{0,7} + 11 R{0,8}
   + 11 R{0,10} + 11 R{0,11} + 11 R{0,13} + 11 R{0,17} + 11 R{0,18}
   + 11 R{0,19} + 11 R{0,20} + 11 R{0,21} + 11 R{4,1} + 11 R{4,2}
   + 11 R{4,6} + 11 R{4,7} + 11 R{4,12} + 11 R{4,20} <= 11
 R2_16: 5 R{0,6} + 5 R{0,15} + 5 R{0,16} <= 5
 R2_17: 11 R{0,21} + 11 R{3,5} + 11 R{3,11} + 11 R{3,16} <= 11
 R2_18: <= 0
 R2_19: 9 R{0,6} + 11 R{0,8} + 11 R{0,11} + 10 R{0,15} + 11 R{1,4}
   + 11 R{2,5} + 11 R{4,1} + 11 R{4,2} + 11 R{4,3} + 11 R{4,6} + 11 R{4,7}
   + 11 R{4,8} + 11 R{4,12} <= 11
 R2_20: 13 R{0,5} + 13 R{0,7} + 13 R{0,23} + 13 R{1,6} + 13 R{2,3}
   + 13 R{3,1} + 13 R{3,2} + 13 R{3,3} + 13 R{3,5} + 13 R{3,7} + 13 R{3,8}
   + 13 R{3,10} + 13 R{3,11} + 13 R{3,12} + 13 R{3,14} + 13 R{3,15}
   + 13 R{3,18} + 13 R{5,2} <= 13
 R2_21: <= 0
 R2_22: 5 R{0,10} + 10 R{0,19} + 10 R{4,18} + 10 R{4,20} + 10 R{4,21}
   <= 10
 R2_23: 14 R{0,6} + 14 R{0,16} + 14 R{4,3} + 14 R{6,2} + 14 R{6,3}
   + 14 R{6,4} + 14 R{6,6} + 14 R{6,12} + 14 R{6,13} + 14 R{6,15} <= 14
 R2_24: 10 R{0,10} + 10 R{0,22} + 10 R{1,11} + 10 R{1,16} + 10 R{1,18}
   + 10 R{2,11} + 10 R{3,1} + 10 R{3,2} + 10 R{3,3} + 10 R{3,4} + 10 R{3,5}
   + 10 R{3,6} + 10 R{3,7} + 10 R{3,8} + 10 R{3,10} + 10 R{3,11}
   + 10 R{3,13} + 10 R{3,14} + 10 R{3,15} + 10 R{3,18} <= 10
 R2_25: 13 R{0,0} + 13 R{0,1} + 13 R{0,2} + 13 R{0,7} + 13 R{0,8}
   + 13 R{0,9} + 10 R{0,10} + 13 R{0,11} + 13 R{0,12} + 13 R{0,13}
   + 13 R{0,14} + 13 R{0,17} + 13 R{0,18} + 13 R{0,20} + 13 R{0,22}
   + 13 R{0,23} + 13 R{2,8} + 13 R{2,9} + 13 R{2,11} + 13 R{3,18}
   + 13 R{4,1} + 13 R{4,2} + 13 R{4,3} + 13 R{4,4} + 13 R{4,5} + 13 R{4,6}
   + 13 R{4,7} + 13 R{4,8} + 13 R{4,9} + 13 R{4,10} + 13 R{4,11}
   + 13 R{4,12} + 13 R{4,13} + 13 R{4,14} + 13 R{4,15} + 13 R{4,16}
   + 13 R{4,19} <= 13
 R2_26: 6 R{0,6} + 6 R{0,16} + 6 R{1,1} + 6 R{1,2} + 6 R{1,3} + 6 R{1,4}
   + 6 R{1,5} + 6 R{1,6} + 6 R{1,9} + 6 R{1,11} + 6 R{1,13} + 6 R{1,17}
   <= 6
 R2_27: 5 R{0,6} + 5 R{0,15} + 5 R{0,16} + 5 R{0,22} + 5 R{0,23} + 5 R{1,2}
   + 5 R{1,3} + 5 R{1,4} + 5 R{1,6} + 5 R{1,8} + 5 R{1,10} + 5 R{1,14}
   + 5 R{1,18} + 5 R{1,19} + 5 R{2,4} + 5 R{2,8} + 5 R{2,9} + 5 R{2,10}
   + 5 R{2,11} + 5 R{2,12} + 5 R{3,5} + 5 R{3,9} + 5 R{3,11} + 5 R{3,16}
   + 5 R{3,18} + 5 R{4,13} + 5 R{6,4} + 5 R{6,8} + 5 R{6,9} + 5 R{6,11}
   + 5 R{6,16} + 5 R{6,17} <= 5
 R2_28: <= 0
 R2_29: <= 0
 R2_30: <= 0
 R2_31: 6 R{6,1} + 6 R{6,2} + 6 R{6,5} + 6 R{6,7} + 6 R{6,9} + 6 R{6,17}
   <= 6
 R2_32: 7 R{0,4} + 7 R{0,5} + 7 R{1,7} + 7 R{1,8} + 7 R{1,10} + 7 R{1,14}
   + 7 R{1,15} + 7 R{1,16} + 7 R{1,17} <= 7
 R2_33: 12 R{0,6} + 12 R{0,15} + 12 R{0,16} + 12 R{3,15} + 12 R{3,17}
   <= 12
 R2_34: 5 R{0,0} + 5 R{0,1} + 5 R{0,2} + 5 R{0,6} + 5 R{0,7} + 5 R{0,8}
   + 5 R{0,9} + 5 R{0,10} + 5 R{0,11} + 5 R{0,12} + 5 R{0,13} + 5 R{0,14}
   + 5 R{0,15} + 5 R{0,16} + 5 R{0,18} + 5 R{0,20} + 5 R{0,21} + 5 R{0,22}
   + 5 R{0,23} + 5 R{6,14} + 5 R{6,15} <= 5
 R2_35: <= 0
 R2_36: 15 R{1,1} + 15 R{1,2} + 15 R{1,3} + 15 R{1,4} + 15 R{1,6}
   + 15 R{1,13} <= 16
 R2_37: 5 R{0,6} + 5 R{0,15} + 5 R{0,16} + 5 R{5,1} + 5 R{5,3} <= 5
 R2_38: <= 0
 R2_39: 15 R{0,0} + 15 R{0,1} + 15 R{0,2} + 15 R{0,7} + 15 R{0,8}
   + 15 R{0,9} + 15 R{0,10} + 15 R{0,11} + 15 R{0,12} + 15 R{0,13}
   + 15 R{0,14} + 15 R{0,20} + 15 R{0,21} + 15 R{0,23} <= 17
 R2_40: 15 R{2,1} + 15 R{2,2} + 15 R{2,3} + 15 R{2,4} + 15 R{2,5}
   + 15 R{2,6} + 15 R{2,8} + 15 R{2,9} + 15 R{2,14} + 15 R{5,5} <= 15
 R2_41: 5 R{0,0} + 5 R{0,1} + 5 R{0,2} + 5 R{0,7} + 5 R{0,8} + 5 R{0,9}
   + 5 R{0,10} + 5 R{0,11} + 5 R{0,12} + 5 R{0,13} + 5 R{0,14} + 5 R{0,17}
   + 5 R{0,18} + 5 R{0,20} + 5 R{0,21} + 5 R{0,22} + 5 R{0,23} + 5 R{3,2}
   + 5 R{3,3} + 5 R{3,8} + 5 R{3,14} + 5 R{4,17} + 5 R{6,5} + 5 R{6,7}
   + 5 R{6,10} + 5 R{6,17} <= 5
 R2_42: 4 R{2,1} + 4 R{2,2} + 4 R{2,3} + 4 R{2,4} + 4 R{2,5} + 4 R{2,7}
   + 4 R{2,8} + 4 R{2,13} <= 4
 R2_43: <= 0
 R2_44: <= 0
 R2_45: <= 0
 R2_46: 9 R{0,17} + 9 R{0,18} + 9 R{0,19} + 9 R{0,22} + 9 R{4,5} + 9 R{4,8}
   + 9 R{4,9} + 9 R{4,10} + 9 R{4,11} + 9 R{4,14} + 9 R{4,15} + 9 R{4,16}
   + 9 R{4,17} + 9 R{4,19} + 9 R{4,21} <= 9
 R2_47: 7 R{0,0} + 7 R{0,1} + 7 R{0,2} + 7 R{0,7} + 7 R{0,12} + 7 R{0,17}
   + 7 R{1,1} + 7 R{1,2} + 7 R{1,3} + 7 R{1,13} <= 7
 R2_48: 4 R{4,1} + 4 R{4,2} + 4 R{4,3} + 4 R{4,4} + 4 R{4,5} + 4 R{4,6}
   + 4 R{4,7} + 4 R{4,8} + 4 R{4,9} + 4 R{4,10} + 4 R{4,11} + 4 R{4,12}
   + 4 R{4,14} + 4 R{4,15} + 4 R{4,16} + 4 R{4,19} + 4 R{4,20} + 4 R{4,21}
   <= 4
 R2_49: <= 0
 R2_50: <= 0
 R2_51: 11 R{0,22} + 11 R{2,14} <= 11
 R2_52: <= 0
 R2_53: 13 R{4,1} + 13 R{4,2} + 13 R{4,3} + 13 R{4,5} + 13 R{4,6}
   + 13 R{4,7} + 13 R{4,8} + 13 R{4,11} + 13 R{4,12} + 13 R{4,16}
   + 13 R{4,20} + 13 R{4,21} <= 13
 R2_54: 9 R{3,1} + 9 R{3,2} + 9 R{3,3} + 9 R{3,4} + 9 R{3,5} + 9 R{3,6}
   + 9 R{3,7} + 9 R{3,8} + 9 R{3,10} + 9 R{3,11} + 9 R{3,12} + 9 R{3,13}
   + 9 R{3,14} + 9 R{3,15} + 9 R{3,16} + 9 R{3,17} + 9 R{3,18} <= 9
 R2_55: <= 0
 R2_56: 6 R{0,1} + 6 R{0,2} + 6 R{0,10} + 6 R{0,11} + 6 R{0,13} + 6 R{0,16}
   + 6 R{0,18} + 6 R{3,2} + 6 R{3,3} + 6 R{3,4} + 6 R{3,5} + 6 R{3,6}
   + 6 R{3,7} + 6 R{3,8} + 6 R{3,10} + 6 R{3,13} + 6 R{3,15} + 6 R{4,4}
   + 6 R{4,9} + 6 R{4,10} + 6 R{4,13} + 6 R{4,15} + 6 R{4,18} + 6 R{6,2}
   + 6 R{6,3} + 6 R{6,7} + 6 R{6,10} + 6 R{6,14} <= 6
 R2_57: <= 0
 R2_58: <= 0
 R2_59: 10 R{3,6} + 10 R{3,7} + 10 R{3,9} + 10 R{3,10} + 10 R{3,11}
   + 10 R{3,16} + 10 R{4,14} + 10 R{4,19} <= 10
 R2_60: <= 0
 R2_61: 9 R{0,23} + 9 R{4,10} + 9 R{6,10} <= 9
 R2_62: <= 0
 R2_63: <= 0
 R2_64: <= 0
 R2_65: 5 R{0,22} + 5 R{6,1} + 5 R{6,2} + 5 R{6,3} + 5 R{6,4} + 5 R{6,5}
   + 5 R{6,6} + 5 R{6,7} + 5 R{6,8} + 5 R{6,9} + 5 R{6,11} + 5 R{6,12}
   + 5 R{6,13} + 5 R{6,15} + 5 R{6,16} + 5 R{6,17} <= 5
 R2_66: 7 R{1,5} + 7 R{1,7} + 7 R{1,9} + 7 R{1,12} + 7 R{1,15} + 7 R{1,17}
   + 7 R{2,10} + 7 R{3,16} + 7 R{3,17} <= 7
 R2_67: 3 R{0,6} + 3 R{0,15} + 3 R{0,16} + 3 R{3,2} + 3 R{3,3} + 3 R{3,4}
   + 3 R{3,5} + 3 R{3,7} + 3 R{3,13} + 3 R{6,11} + 3 R{6,12} <= 3
 R2_68: 6 R{1,5} + 6 R{1,12} + 6 R{1,18} + 6 R{3,19} + 6 R{4,1} + 6 R{4,3}
   + 6 R{4,4} + 6 R{4,8} + 6 R{4,9} + 6 R{4,11} + 6 R{4,12} + 6 R{4,15}
   + 6 R{4,20} <= 6
 R2_69: 7 R{0,0} + 7 R{0,1} + 7 R{0,2} + 7 R{0,7} + 7 R{0,8} + 7 R{0,9}
   + 7 R{0,11} + 7 R{0,12} + 7 R{0,13} + 7 R{0,14} + 7 R{0,17} + 7 R{0,20}
   + 7 R{0,21} + 7 R{4,1} + 7 R{4,2} + 7 R{4,3} + 7 R{4,4} + 7 R{4,6}
   + 7 R{4,7} + 7 R{4,8} + 7 R{4,9} + 7 R{4,10} + 7 R{4,11} + 7 R{4,12}
   + 7 R{4,14} + 7 R{4,15} + 7 R{4,16} + 7 R{4,18} + 7 R{4,20} + 7 R{4,21}
   <= 7
 R2_70: 11 R{6,1} + 11 R{6,2} + 11 R{6,3} + 11 R{6,4} + 11 R{6,6}
   + 11 R{6,12} + 11 R{6,13} <= 11
 R2_71: 7 R{3,1} + 7 R{3,2} + 7 R{3,3} + 7 R{3,7} + 7 R{3,8} + 7 R{3,10}
   + 7 R{3,12} + 7 R{3,14} + 7 R{3,15} + 7 R{6,2} + 7 R{6,3} + 7 R{6,6}
   + 7 R{6,13} <= 7
 R2_72: <= 0
 R2_73: 11 R{0,0} + 11 R{0,1} + 11 R{0,2} + 11 R{0,7} + 11 R{0,8}
   + 11 R{0,9} + 11 R{0,10} + 11 R{0,11} + 11 R{0,12} + 11 R{0,13}
   + 11 R{0,14} + 11 R{0,17} + 11 R{0,18} + 11 R{0,19} + 11 R{0,20}
   + 11 R{0,21} + 11 R{0,22} + 11 R{0,23} <= 11
 R2_74: 5 R{5,1} + 5 R{5,2} + 5 R{5,3} + 5 R{5,4} + 5 R{5,5} <= 5
 R2_75: 8 R{6,1} + 8 R{6,2} + 8 R{6,3} + 8 R{6,4} + 8 R{6,5} + 8 R{6,6}
   + 8 R{6,8} + 8 R{6,9} + 8 R{6,11} + 8 R{6,12} + 8 R{6,13} + 8 R{6,16}
   + 8 R{6,17} <= 8
 R2_76: 12 R{0,4} + 12 R{1,5} + 12 R{1,11} + 12 R{1,12} + 12 R{3,3}
   + 12 R{3,7} + 12 R{3,8} + 12 R{3,14} + 12 R{3,15} + 12 R{6,8} <= 12
 R2_77: 7 R{0,1} + 7 R{0,2} + 7 R{0,8} + 7 R{0,9} + 7 R{0,20} + 7 R{1,2}
   + 7 R{1,3} + 7 R{1,4} + 7 R{1,5} + 7 R{1,6} + 7 R{1,7} + 7 R{1,9}
   + 7 R{1,12} + 7 R{1,19} + 7 R{2,2} + 7 R{2,3} + 7 R{2,7} + 7 R{2,13}
   + 7 R{4,2} + 7 R{4,7} + 7 R{6,3} + 7 R{6,4} + 7 R{6,6} + 7 R{6,8}
   + 7 R{6,11} + 7 R{6,12} + 7 R{6,13} <= 7
Bounds
End
